Gurobi Optimizer version 9.1.2 build v9.1.2rc0 (linux64)
Thread count: 36 physical cores, 72 logical processors, using up to 32 threads
Optimize a model with 12 rows, 57 columns and 590 nonzeros
Model fingerprint: 0xf32eec78
Model has 47 quadratic constraints
Coefficient statistics:
  Matrix range     [2e-05, 3e+00]
  QMatrix range    [1e+00, 1e+00]
  QLMatrix range   [1e+00, 1e+00]
  Objective range  [8e-03, 7e-01]
  Bounds range     [1e+00, 1e+00]
  RHS range        [1e+00, 1e+00]
Presolve removed 9 rows and 0 columns

Continuous model is non-convex -- solving as a MIP.

Presolve removed 9 rows and 0 columns
Presolve time: 0.00s
Presolved: 189 rows, 57 columns, 443 nonzeros
Presolved model has 47 bilinear constraint(s)
Variable types: 57 continuous, 0 integer (0 binary)

Root relaxation: objective -1.743721e+00, 44 iterations, 0.00 seconds

    Nodes    |    Current Node    |     Objective Bounds      |     Work
 Expl Unexpl |  Obj  Depth IntInf | Incumbent    BestBd   Gap | It/Node Time

     0     0   -1.74372    0   38          -   -1.74372      -     -    0s
H    0     0                       0.6147548   -1.74372   384%     -    0s
     0     0   -1.64739    0    1    0.61475   -1.64739   368%     -    0s
H    0     0                      -1.6450460   -1.64739  0.14%     -    0s
     0     0     cutoff    0        -1.64505   -1.64505  0.00%     -    0s

Cutting planes:
  RLT: 25
  BQP: 3

Explored 1 nodes (76 simplex iterations) in 0.01 seconds
Thread count was 32 (of 72 available processors)

Solution count 2: -1.64505 0.614755 
No other solutions better than -1.64505

Optimal solution found (tolerance 1.00e-04)
Best objective -1.645045978473e+00, best bound -1.645045978473e+00, gap 0.0000%

User-callback calls 77, time in user-callback 0.00 sec
Gurobi Optimizer version 9.1.2 build v9.1.2rc0 (linux64)
Thread count: 36 physical cores, 72 logical processors, using up to 32 threads
Optimize a model with 24 rows, 125 columns and 2580 nonzeros
Model fingerprint: 0xcd21d65a
Model has 105 quadratic constraints
Coefficient statistics:
  Matrix range     [5e-06, 5e+01]
  QMatrix range    [1e+00, 1e+00]
  QLMatrix range   [1e+00, 1e+00]
  Objective range  [1e-02, 1e+00]
  Bounds range     [1e+00, 1e+00]
  RHS range        [1e+00, 1e+00]
Presolve removed 10 rows and 0 columns

Continuous model is non-convex -- solving as a MIP.

Presolve removed 10 rows and 0 columns
Presolve time: 0.00s
Presolved: 429 rows, 125 columns, 2142 nonzeros
Presolved model has 105 bilinear constraint(s)
Variable types: 125 continuous, 0 integer (0 binary)

Root relaxation: objective -5.341753e+00, 130 iterations, 0.00 seconds

    Nodes    |    Current Node    |     Objective Bounds      |     Work
 Expl Unexpl |  Obj  Depth IntInf | Incumbent    BestBd   Gap | It/Node Time

     0     0   -5.34175    0   75          -   -5.34175      -     -    0s
H    0     0                       0.2348281   -5.34175  2375%     -    0s
     0     0   -4.13577    0   83    0.23483   -4.13577  1861%     -    0s
H    0     0                      -1.1136755   -4.13577   271%     -    0s
     0     0   -4.07541    0   83   -1.11368   -4.07541   266%     -    0s
     0     0   -3.93845    0   62   -1.11368   -3.93845   254%     -    0s
H    0     0                      -1.7580657   -3.93845   124%     -    0s
     0     0   -3.93651    0   39   -1.75807   -3.93651   124%     -    0s
     0     0   -3.91484    0   83   -1.75807   -3.91484   123%     -    0s
     0     0   -3.91378    0   39   -1.75807   -3.91378   123%     -    0s
     0     0   -3.91031    0   91   -1.75807   -3.91031   122%     -    0s
     0     0   -3.90959    0   39   -1.75807   -3.90959   122%     -    0s
     0     0   -3.90824    0   95   -1.75807   -3.90824   122%     -    0s
H    0     0                      -1.8570201   -3.90824   110%     -    0s
     0     0   -3.90771    0   39   -1.85702   -3.90771   110%     -    0s
H    0     0                      -2.2284810   -3.90771  75.4%     -    0s
H    0     0                      -2.8418639   -3.90771  37.5%     -    0s
H    0     0                      -2.8744192   -3.90771  35.9%     -    0s
H    0     0                      -2.8814855   -3.90771  35.6%     -    0s
     0     2   -3.90771    0   39   -2.88149   -3.90771  35.6%     -    0s
*  586   496              14      -2.9896255   -3.52110  17.8%  24.5    0s
*  717   566              16      -2.9912007   -3.52110  17.7%  22.2    0s
*  852   566              26      -3.0020377   -3.52110  17.3%  20.0    0s
*  937   722              20      -3.1711860   -3.52110  11.0%  19.1    0s
* 1058   828              34      -3.1897390   -3.52110  10.4%  18.1    0s
* 1082   828              23      -3.3099459   -3.52110  6.38%  18.0    0s
* 1297   811              24      -3.3191686   -3.40192  2.49%  16.3    0s
* 1299   811              25      -3.3191708   -3.40192  2.49%  16.2    0s
* 1563   577              18      -3.3196670   -3.32252  0.09%  14.6    0s
* 1567   577              19      -3.3202657   -3.32252  0.07%  14.6    0s
* 1572   577              21      -3.3203819   -3.32252  0.06%  14.5    0s
* 1573   577              21      -3.3203873   -3.32252  0.06%  14.5    0s
* 1874   244              20      -3.3204473   -3.32126  0.02%  12.4    0s
* 1900   244              22      -3.3205332   -3.32103  0.01%  12.3    0s
* 1909   244              21      -3.3205709   -3.32103  0.01%  12.3    0s
* 2240    21              20      -3.3205796   -3.32103  0.01%  10.5    0s
* 2246    21              24      -3.3205820   -3.32103  0.01%  10.5    0s
* 2247    21              23      -3.3205824   -3.32103  0.01%  10.5    0s
* 2251    21              24      -3.3205835   -3.32103  0.01%  10.5    0s
* 2252    21              24      -3.3205839   -3.32103  0.01%  10.5    0s

Cutting planes:
  RLT: 46
  BQP: 6
  PSD: 31

Explored 2522 nodes (24086 simplex iterations) in 0.67 seconds
Thread count was 32 (of 72 available processors)

Solution count 10: -3.32058 -3.32058 -3.32058 ... -3.32027
No other solutions better than -3.32058

Optimal solution found (tolerance 1.00e-04)
Best objective -3.320583885829e+00, best bound -3.320583885829e+00, gap 0.0000%

User-callback calls 5340, time in user-callback 0.00 sec



objective value: -3.320583885828625
objective bound: -3.320583885828625
x_opt: [1.0, 0.0, 1.0, 0.0, 0.17200576095002346, 2.8897351063941797e-7, 1.0, 1.0, 0.48629302750389763, 0.0, 0.0, 0.0, 0.7454697454915667, 0.0, 0.4534677693716071, 0.3085038861018534, 0.0, 0.0, 0.0, 0.0]
GUROBI solution time: 0.6657559871673584




